c read Graph
c width = 167
c time = 509 ms
c width = 14
c time = 735 ms
c width = 13
c time = 883 ms
c width = 12
c time = 934 ms
c width = 11
c time = 2904 ms
c width = 11
c time = 4230 ms
s td 166 12 180
b 1 1 2 19
b 2 2 3 19 20
b 3 16 17 35 36
b 4 3 19 20 37
b 5 16 35 36 54
b 6 127 145 146 164
b 7 144 161 162 179
b 8 127 146 164 165
b 9 144 161 178 179
b 10 3 4 5 22
b 11 3 5 21 22 38 55
b 12 5 21 22 38 40 55 57
b 13 21 38 39 40 57
b 14 5 22 38 40 55 57 74
b 15 38 55 56 57 74
b 16 5 22 40 55 57 74 91
b 17 5 22 24 40 41 57 74 91
b 18 5 22 23 24 41
b 19 5 24 40 41 57 60 74 76 77 91
b 20 5 24 41 57 60 74 76 77 91 93
b 21 5 24 41 60 74 76 77 91 93 94
b 22 5 24 41 60 74 77 91 93 94 110
b 23 5 24 41 60 77 91 93 94 110 111
b 24 5 24 41 60 77 91 94 110 111 130 149 168
b 25 91 94 110 111 130 149 168
b 26 91 110 111 130 149 166 168
b 27 91 110 111 130 147 149 166
b 28 130 147 148 149 166
b 29 91 110 111 128 130 147 166
b 30 111 128 129 130 147
b 31 91 110 127 128 147 166
b 32 91 109 110 127
b 33 127 128 147 165 166
b 34 127 128 146 147 165
b 35 149 166 167 168
b 36 5 24 41 60 77 94 111 113 130 149 168
b 37 5 24 41 60 77 94 96 113 130 149 168
b 38 77 94 95 96 113
b 39 5 24 41 60 77 96 113 130 132 149 168
b 40 113 130 131 132 149
b 41 5 24 41 43 60 77 96 113 132 149 168
b 42 5 24 43 60 77 79 96 113 132 149 168
b 43 5 24 43 60 79 96 113 115 132 149 168
b 44 5 24 43 60 62 79 96 115 132 149 168
b 45 5 24 43 62 79 96 98 115 132 149 168
b 46 79 96 97 98 115
b 47 5 9 24 26 43 62 79 98 115 132 149 168
b 48 9 26 43 62 79 98 115 132 149 151 168
b 49 132 149 151 168
b 50 9 26 43 62 79 98 115 132 134 151 168
b 51 9 26 43 62 79 98 115 117 134 151 168
b 52 9 26 43 62 79 81 98 117 134 151 168
b 53 62 79 80 81 98
b 54 9 26 43 45 62 81 98 117 134 151 168
b 55 26 43 44 45 62
b 56 9 26 28 45 62 81 98 117 134 151 168
b 57 9 28 45 62 64 81 98 117 134 151 168
b 58 45 62 63 64 81
b 59 9 28 45 64 81 98 100 117 134 151 168
b 60 9 28 45 64 81 83 100 117 134 151 168
b 61 64 81 82 83 100
b 62 9 28 45 47 64 83 100 117 134 151 168
b 63 28 45 46 47 64
b 64 9 28 47 64 83 100 117 134 151 153 168 172
b 65 9 28 47 64 83 100 117 134 136 153 168 172
b 66 9 28 47 64 83 100 117 136 153 155 168 172
b 67 9 28 47 64 83 100 117 119 136 155 172
b 68 9 28 47 64 83 100 119 136 138 155 172
b 69 119 136 137 138 155
b 70 9 28 47 64 66 83 100 119 138 155 172
b 71 47 64 65 66 83
b 72 9 13 28 30 47 66 83 100 119 138 155 172
b 73 13 30 32 47 49 66 83 100 119 138 155 172
b 74 30 32 47 48 49 66 83 100 119 138 155 172
b 75 13 30 31 32 49
b 76 13 32 49 66 83 100 102 119 138 155 172
b 77 13 32 49 66 83 85 102 119 138 155 172
b 78 13 32 49 66 85 102 119 121 138 155 172
b 79 102 119 121 138 155 172
b 80 102 119 120 121 138
b 81 13 32 49 66 85 102 104 121 138 155 172
b 82 85 102 103 104 121
b 83 13 32 49 66 68 85 104 121 138 155 172
b 84 49 66 67 68 85
b 85 13 32 49 68 85 87 104 121 138 155 172
b 86 68 85 86 87 104
b 87 66 83 84 85 102
b 88 83 100 101 102 119
b 89 9 11 13 28 30 47
b 90 11 28 29 30 47
b 91 11 12 13 30
b 92 9 10 11 28
b 93 100 117 118 119 136
b 94 136 153 154 155 172
b 95 117 134 135 136 153
b 96 134 151 153 168 170 172
b 97 134 151 152 153 170
b 98 151 168 169 170
b 99 153 170 171 172
b 100 81 98 99 100 117
b 101 9 26 27 28 45
b 102 98 115 116 117 134
b 103 115 132 133 134 151
b 104 132 149 150 151 168
b 105 5 7 9 24 26 43
b 106 7 8 9 26
b 107 5 6 7 24
b 108 7 24 25 26 43
b 109 43 60 61 62 79
b 110 96 113 114 115 132
b 111 60 77 78 79 96
b 112 24 41 42 43 60
b 113 94 111 112 113 130
b 114 74 91 92 93 110
b 115 57 74 75 76 93
b 116 40 41 57 59 60 76 77
b 117 40 57 58 59 76
b 118 55 73 74 91
b 119 3 21 37 38 55
b 120 3 20 21 37 38
b 121 70 87 88 89 106
b 122 13 32 49 51 68 87 104 121 138 155 172
b 123 13 32 51 68 70 87 104 121 138 155 172
b 124 13 32 51 70 87 89 104 108 121 138 155 172
b 125 70 87 89 104 106 108 121 138 155 172
b 126 87 89 104 106 108 121 138 155 157 172 176
b 127 87 89 104 106 108 121 138 140 157 176
b 128 121 138 139 140 157
b 129 87 89 104 106 108 121 123 140 157 176
b 130 104 121 122 123 140
b 131 87 104 105 106 123
b 132 89 106 108 123 140 157 159 176
b 133 140 157 158 159 176
b 134 89 106 108 123 125 140 159 176
b 135 89 106 107 108 125
b 136 106 108 123 125 140 142 159 176
b 137 123 140 141 142 159
b 138 108 125 142 159 176 178
b 139 159 176 177 178
b 140 108 125 142 144 159 178
b 141 108 125 126 144
b 142 125 142 144 159 160 178
b 143 125 142 143 144 160 178
b 144 143 144 160 161 178
b 145 106 123 124 125 142
b 146 138 155 157 172 174 176
b 147 138 155 156 157 174
b 148 157 174 175 176
b 149 155 172 173 174
b 150 51 68 69 70 87
b 151 32 49 50 51 68
b 152 13 32 51 70 72 89 108
b 153 13 15 32 51 70 72 89
b 154 13 14 15 32
b 155 15 32 51 53 70 72 89
b 156 53 70 71 72 89
b 157 15 32 34 51 53 70 72
b 158 34 51 52 53 70
b 159 15 32 33 34 51
b 160 15 34 53 54 72
b 161 15 16 34 53 54
b 162 16 34 35 53 54
b 163 72 89 90 108
b 164 162 179 180
b 165 145 163 164
b 166 17 18 36
1 2
2 4
3 166
3 5
4 120
5 162
6 165
6 8
7 164
7 9
8 34
9 144
10 11
11 119
11 12
12 14
12 13
14 16
14 15
16 118
16 17
17 19
17 18
19 116
19 20
20 115
20 21
21 22
22 114
22 23
23 24
24 36
24 25
25 26
26 35
26 27
27 28
27 29
29 30
29 31
31 32
31 33
33 34
36 113
36 37
37 38
37 39
39 41
39 40
41 112
41 42
42 111
42 43
43 110
43 44
44 109
44 45
45 47
45 46
47 105
47 48
48 104
48 50
48 49
50 103
50 51
51 102
51 52
52 54
52 53
54 56
54 55
56 101
56 57
57 59
57 58
59 100
59 60
60 62
60 61
62 64
62 63
64 96
64 65
65 95
65 66
66 94
66 67
67 93
67 68
68 70
68 69
70 72
70 71
72 89
72 73
73 76
73 75
73 74
76 88
76 77
77 87
77 78
78 81
78 79
79 80
81 83
81 82
83 85
83 84
85 122
85 86
89 92
89 91
89 90
96 98
96 99
96 97
105 107
105 106
105 108
116 117
119 120
121 125
122 151
122 123
123 150
123 124
124 152
124 125
125 126
126 127
126 146
127 129
127 128
129 131
129 132
129 130
132 133
132 134
134 135
134 136
136 145
136 137
136 138
138 139
138 140
140 141
140 142
142 143
143 144
146 147
146 148
146 149
152 163
152 153
153 154
153 155
155 156
155 157
157 160
157 159
157 158
160 161
161 162
